(set-info :smt-lib-version 2.6)
(set-logic QF_NRA)
(set-info :source |
Generated by: Tobias Winkler
Generated on: 2024-04-07
Generator: PRAY - Probabilistic Recursion Analyzer (https://doi.org/10.5281/zenodo.7506305)
Application: Termination analysis of probabilistic pushdown automata (pPDA)
Target solver: Z3
Publications:
  [1] Tobias Winkler, Joost-Pieter Katoen:
On Certificates, Expected Runtimes, and Termination in Probabilistic Pushdown Automata. LICS 2023: 1-13
  [2] Tomás Brázdil, Stefan Kiefer, Antonín Kucera, Ivana Hutarová Vareková:
Runtime analysis of probabilistic programs with unbounded recursion. J. Comput. Syst. Sci. 81(1): 288-310 (2015)

This benchmark encodes positive almost sure termination (PAST; termination in finite expected time) of the probabilistic recursive program given below. The program is taken from [2].
The program was automatically translated to a probabilistic pushdown automaton (pPDA) using the PRAY tool. The SMT formula results from applying Theorem 8 from [1]. The SMT formula is SAT iff the program is PAST.

bool and() {
  prob {
    1//2: return (1//2: true | 1//2: false);
    1//2: {
      if(!or()) return false;
      else return or();
    }
  }
}

bool or() {
  prob {
    1//2: return (1//2: true | 1//2: false);
    1//2: {
      if(and()) return true;
      else return and();
    }
  }
}

and(); # entry point

|)
(set-info :license "https://creativecommons.org/licenses/by/4.0/")
(set-info :category "industrial")
(set-info :status sat)

(declare-fun |(12,4,25)| () Real)
(declare-fun |(9,2,39)| () Real)
(declare-fun |(39,4,25)| () Real)
(declare-fun |(9,2,38)| () Real)
(declare-fun |(38,4,25)| () Real)
(declare-fun |(0, 0)| () Real)
(declare-fun |(34, 0)| () Real)
(declare-fun |(48, 0)| () Real)
(declare-fun |(0, 1)| () Real)
(declare-fun |(34, 1)| () Real)
(declare-fun |(48, 1)| () Real)
(declare-fun |(4, 0)| () Real)
(declare-fun |(42, 0)| () Real)
(declare-fun |(32, 0)| () Real)
(declare-fun |(29,6,15)| () Real)
(declare-fun |(5, 0)| () Real)
(declare-fun |(20, 0)| () Real)
(declare-fun |(8, 0)| () Real)
(declare-fun |(16, 0)| () Real)
(declare-fun |(4, 1)| () Real)
(declare-fun |(42, 1)| () Real)
(declare-fun |(32, 1)| () Real)
(declare-fun |(21,6,28)| () Real)
(declare-fun |(2, 2)| () Real)
(declare-fun |(26, 2)| () Real)
(declare-fun |(41, 2)| () Real)
(declare-fun |(5, 1)| () Real)
(declare-fun |(20, 1)| () Real)
(declare-fun |(3,3,13)| () Real)
(declare-fun |(36,3,13)| () Real)
(declare-fun |(13, 0)| () Real)
(declare-fun |(7,3,45)| () Real)
(declare-fun |(45, 0)| () Real)
(declare-fun |(7,3,43)| () Real)
(declare-fun |(43, 0)| () Real)
(declare-fun |(7, 3)| () Real)
(declare-fun |(1, 3)| () Real)
(declare-fun |(35, 3)| () Real)
(declare-fun |(47, 3)| () Real)
(declare-fun |(11,2,38)| () Real)
(declare-fun |(8,0,31)| () Real)
(declare-fun |(31,2,38)| () Real)
(declare-fun |(11,2,39)| () Real)
(declare-fun |(8,0,37)| () Real)
(declare-fun |(37,2,39)| () Real)
(declare-fun |(15, 0)| () Real)
(declare-fun |(7,6,30)| () Real)
(declare-fun |(30, 0)| () Real)
(declare-fun |(7,6,27)| () Real)
(declare-fun |(27, 0)| () Real)
(declare-fun |(7, 6)| () Real)
(declare-fun |(43,1,40)| () Real)
(declare-fun |(6,6,28)| () Real)
(declare-fun |(28, 0)| () Real)
(declare-fun |(6,6,15)| () Real)
(declare-fun |(6, 6)| () Real)
(declare-fun |(8, 1)| () Real)
(declare-fun |(16, 1)| () Real)
(declare-fun |(6,3,44)| () Real)
(declare-fun |(44, 0)| () Real)
(declare-fun |(6,3,13)| () Real)
(declare-fun |(6, 3)| () Real)
(declare-fun |(4,5,23)| () Real)
(declare-fun |(32,5,23)| () Real)
(declare-fun |(3, 3)| () Real)
(declare-fun |(36, 3)| () Real)
(declare-fun |(21, 3)| () Real)
(declare-fun |(4,5,24)| () Real)
(declare-fun |(42,5,24)| () Real)
(declare-fun |(0, 5)| () Real)
(declare-fun |(34, 5)| () Real)
(declare-fun |(48, 5)| () Real)
(declare-fun |(13, 1)| () Real)
(declare-fun |(45, 1)| () Real)
(declare-fun |(43, 1)| () Real)
(declare-fun |(19,3,13)| () Real)
(declare-fun |(8,5,24)| () Real)
(declare-fun |(24,3,13)| () Real)
(declare-fun |(9, 2)| () Real)
(declare-fun |(17, 2)| () Real)
(declare-fun |(15, 1)| () Real)
(declare-fun |(30, 1)| () Real)
(declare-fun |(27, 1)| () Real)
(declare-fun |(20,5,19)| () Real)
(declare-fun |(44,5,19)| () Real)
(declare-fun |(13,5,19)| () Real)
(declare-fun |(14, 3)| () Real)
(declare-fun |(28, 1)| () Real)
(declare-fun |(11, 2)| () Real)
(declare-fun |(37, 2)| () Real)
(declare-fun |(31, 2)| () Real)
(declare-fun |(18, 3)| () Real)
(declare-fun |(42,0,31)| () Real)
(declare-fun |(44, 1)| () Real)
(declare-fun |(3,3,44)| () Real)
(declare-fun |(21,3,44)| () Real)
(declare-fun |(20,5,29)| () Real)
(declare-fun |(13,5,29)| () Real)
(declare-fun |(1, 6)| () Real)
(declare-fun |(35, 6)| () Real)
(declare-fun |(47, 6)| () Real)
(declare-fun |(28,5,23)| () Real)
(declare-fun |(34,0,46)| () Real)
(declare-fun |(4, 5)| () Real)
(declare-fun |(42, 5)| () Real)
(declare-fun |(32, 5)| () Real)
(declare-fun |(10, 3)| () Real)
(declare-fun |(8,1,33)| () Real)
(declare-fun |(33, 3)| () Real)
(declare-fun |(8,1,22)| () Real)
(declare-fun |(22, 3)| () Real)
(declare-fun |(5,0,46)| () Real)
(declare-fun |(46, 2)| () Real)
(declare-fun |(5,0,11)| () Real)
(declare-fun |(5, 5)| () Real)
(declare-fun |(20, 5)| () Real)
(declare-fun |(3, 6)| () Real)
(declare-fun |(36, 6)| () Real)
(declare-fun |(21, 6)| () Real)
(declare-fun |(19,3,44)| () Real)
(declare-fun |(8,5,23)| () Real)
(declare-fun |(23,3,44)| () Real)
(declare-fun |(42,1,22)| () Real)
(declare-fun |(5,5,29)| () Real)
(declare-fun |(29, 3)| () Real)
(declare-fun |(5,5,19)| () Real)
(declare-fun |(19, 3)| () Real)
(declare-fun |(2,2,38)| () Real)
(declare-fun |(26,2,38)| () Real)
(declare-fun |(2,2,39)| () Real)
(declare-fun |(41,2,39)| () Real)
(declare-fun |(34,1,40)| () Real)
(declare-fun |(8, 5)| () Real)
(declare-fun |(16, 5)| () Real)
(declare-fun |(35,3,43)| () Real)
(declare-fun |(36,6,15)| () Real)
(declare-fun |(12, 4)| () Real)
(declare-fun |(39, 4)| () Real)
(declare-fun |(38, 4)| () Real)
(declare-fun |(14, 6)| () Real)
(declare-fun |(5,1,40)| () Real)
(declare-fun |(40, 3)| () Real)
(declare-fun |(5,1,10)| () Real)
(declare-fun |(24, 3)| () Real)
(declare-fun |(23, 3)| () Real)
(declare-fun |(18, 6)| () Real)
(declare-fun |(13, 5)| () Real)
(declare-fun |(45, 5)| () Real)
(declare-fun |(43, 5)| () Real)
(declare-fun |(0,0,11)| () Real)
(declare-fun |(48,0,11)| () Real)
(declare-fun |(10, 6)| () Real)
(declare-fun |(33, 6)| () Real)
(declare-fun |(22, 6)| () Real)
(declare-fun |(3,6,15)| () Real)
(declare-fun |(27,5,24)| () Real)
(declare-fun |(10,3,43)| () Real)
(declare-fun |(22,3,43)| () Real)
(declare-fun |(10,3,45)| () Real)
(declare-fun |(33,3,45)| () Real)
(declare-fun |(15, 5)| () Real)
(declare-fun |(30, 5)| () Real)
(declare-fun |(27, 5)| () Real)
(declare-fun |(3,6,28)| () Real)
(declare-fun |(18,3,43)| () Real)
(declare-fun |(40,3,43)| () Real)
(declare-fun |(28, 5)| () Real)
(declare-fun |(18,3,45)| () Real)
(declare-fun |(19,6,15)| () Real)
(declare-fun |(24,6,15)| () Real)
(declare-fun |(43,5,29)| () Real)
(declare-fun |(16,0,31)| () Real)
(declare-fun |(4,0,31)| () Real)
(declare-fun |(29, 6)| () Real)
(declare-fun |(19, 6)| () Real)
(declare-fun |(0,1,10)| () Real)
(declare-fun |(48,1,10)| () Real)
(declare-fun |(19,6,28)| () Real)
(declare-fun |(23,6,28)| () Real)
(declare-fun |(16,0,37)| () Real)
(declare-fun |(4,0,37)| () Real)
(declare-fun |(17,2,38)| () Real)
(declare-fun |(0,0,46)| () Real)
(declare-fun |(17,2,39)| () Real)
(declare-fun |(15,0,31)| () Real)
(declare-fun |(44, 5)| () Real)
(declare-fun |(28,0,37)| () Real)
(declare-fun |(15,0,37)| () Real)
(declare-fun |(46,2,38)| () Real)
(declare-fun |(35,6,27)| () Real)
(declare-fun |(16,1,22)| () Real)
(declare-fun |(4,1,22)| () Real)
(declare-fun |(40, 6)| () Real)
(declare-fun |(15,1,22)| () Real)
(declare-fun |(32,0,37)| () Real)
(declare-fun |(0,1,40)| () Real)
(declare-fun |(16,1,33)| () Real)
(declare-fun |(4,1,33)| () Real)
(declare-fun |(1,3,43)| () Real)
(declare-fun |(24, 6)| () Real)
(declare-fun |(23, 6)| () Real)
(declare-fun |(1,3,45)| () Real)
(declare-fun |(47,3,45)| () Real)
(declare-fun |(28,1,33)| () Real)
(declare-fun |(15,1,33)| () Real)
(declare-fun |(34,5,29)| () Real)
(declare-fun |(10,6,27)| () Real)
(declare-fun |(22,6,27)| () Real)
(declare-fun |(32,1,33)| () Real)
(declare-fun |(10,6,30)| () Real)
(declare-fun |(33,6,30)| () Real)
(declare-fun |(18,6,27)| () Real)
(declare-fun |(40,6,27)| () Real)
(declare-fun |(18,6,30)| () Real)
(declare-fun |(27,0,31)| () Real)
(declare-fun |(25,4,25)| () Real)
(declare-fun |(30,0,37)| () Real)
(declare-fun |(27,1,22)| () Real)
(declare-fun |(30,1,33)| () Real)
(declare-fun |(1,6,27)| () Real)
(declare-fun |(1,6,30)| () Real)
(declare-fun |(47,6,30)| () Real)
(declare-fun |(0,5,19)| () Real)
(declare-fun |(48,5,19)| () Real)
(declare-fun |(0,5,29)| () Real)
(declare-fun |(16,5,23)| () Real)
(declare-fun |(16,5,24)| () Real)
(declare-fun |(15,5,23)| () Real)
(declare-fun |(15,5,24)| () Real)
(declare-fun |(20,0,11)| () Real)
(declare-fun |(13,0,11)| () Real)
(declare-fun |(45,0,11)| () Real)
(declare-fun |(20,1,10)| () Real)
(declare-fun |(14,3,13)| () Real)
(declare-fun |(20,0,46)| () Real)
(declare-fun |(13,1,10)| () Real)
(declare-fun |(45,1,10)| () Real)
(declare-fun |(29,3,13)| () Real)
(declare-fun |(13,0,46)| () Real)
(declare-fun |(43,0,46)| () Real)
(declare-fun |(30,5,23)| () Real)
(declare-fun |(20,1,40)| () Real)
(declare-fun |(14,3,44)| () Real)
(declare-fun |(13,1,40)| () Real)
(declare-fun |(44,0,11)| () Real)
(declare-fun |(44,1,10)| () Real)
(declare-fun |(14,6,15)| () Real)
(declare-fun |(14,6,28)| () Real)
(declare-fun |(45,5,19)| () Real)
(assert (>= |(12,4,25)| 0.0))
(assert (>= |(12,4,25)|
    (+ 0.0 (* |(38,4,25)| |(9,2,38)| 1.0) (* |(39,4,25)| |(9,2,39)| 1.0))))
(assert (>= |(0, 0)| 0.0))
(assert (>= |(0, 0)| (+ 0.0 1.0 (* |(48, 0)| (/ 1.0 2.0)) (* |(34, 0)| (/ 1.0 2.0)))))
(assert (>= |(0, 1)| 0.0))
(assert (>= |(0, 1)| (+ 0.0 1.0 (* |(48, 1)| (/ 1.0 2.0)) (* |(34, 1)| (/ 1.0 2.0)))))
(assert (>= |(4, 0)| 0.0))
(assert (>= |(4, 0)| (+ 0.0 1.0 (* |(32, 0)| (/ 1.0 2.0)) (* |(42, 0)| (/ 1.0 2.0)))))
(assert (>= |(29,6,15)| 0.0))
(assert (>= |(29,6,15)| (+ 0.0 1.0)))
(assert (>= |(5, 0)| 0.0))
(assert (>= |(5, 0)| (+ 0.0 1.0 (* |(0, 0)| (/ 1.0 2.0)) (* |(20, 0)| (/ 1.0 2.0)))))
(assert (>= |(8, 0)| 0.0))
(assert (>= |(8, 0)| (+ 0.0 1.0 (* |(4, 0)| (/ 1.0 2.0)) (* |(16, 0)| (/ 1.0 2.0)))))
(assert (>= |(4, 1)| 0.0))
(assert (>= |(4, 1)| (+ 0.0 1.0 (* |(32, 1)| (/ 1.0 2.0)) (* |(42, 1)| (/ 1.0 2.0)))))
(assert (>= |(21,6,28)| 0.0))
(assert (>= |(21,6,28)| (+ 0.0 1.0)))
(assert (>= |(2, 2)| 0.0))
(assert (>= |(2, 2)| (+ 0.0 1.0 (* |(41, 2)| (/ 1.0 2.0)) (* |(26, 2)| (/ 1.0 2.0)))))
(assert (>= |(5, 1)| 0.0))
(assert (>= |(5, 1)| (+ 0.0 1.0 (* |(0, 1)| (/ 1.0 2.0)) (* |(20, 1)| (/ 1.0 2.0)))))
(assert (>= |(3,3,13)| 0.0))
(assert (>= |(3,3,13)| (+ 0.0 (* |(36,3,13)| (/ 1.0 2.0)))))
(assert (>= |(13, 0)| 0.0))
(assert (>= |(13, 0)|
    (+ 0.0
       1.0
       (* |(7, 3)| 1.0)
       (* |(43, 0)| |(7,3,43)| 1.0)
       (* |(45, 0)| |(7,3,45)| 1.0))))
(assert (>= |(1, 3)| 0.0))
(assert (>= |(1, 3)| (+ 0.0 1.0 (* |(47, 3)| (/ 1.0 2.0)) (* |(35, 3)| (/ 1.0 2.0)))))
(assert (>= |(11,2,38)| 0.0))
(assert (>= |(11,2,38)| (+ 0.0 (* |(31,2,38)| |(8,0,31)| 1.0))))
(assert (>= |(11,2,39)| 0.0))
(assert (>= |(11,2,39)| (+ 0.0 (* |(37,2,39)| |(8,0,37)| 1.0))))
(assert (>= |(15, 0)| 0.0))
(assert (>= |(15, 0)|
    (+ 0.0
       1.0
       (* |(7, 6)| 1.0)
       (* |(27, 0)| |(7,6,27)| 1.0)
       (* |(30, 0)| |(7,6,30)| 1.0))))
(assert (>= |(43,1,40)| 0.0))
(assert (>= |(43,1,40)| (+ 0.0 1.0)))
(assert (>= |(16, 0)| 0.0))
(assert (>= |(16, 0)|
    (+ 0.0
       1.0
       (* |(6, 6)| 1.0)
       (* |(15, 0)| |(6,6,15)| 1.0)
       (* |(28, 0)| |(6,6,28)| 1.0))))
(assert (>= |(8, 1)| 0.0))
(assert (>= |(8, 1)| (+ 0.0 1.0 (* |(4, 1)| (/ 1.0 2.0)) (* |(16, 1)| (/ 1.0 2.0)))))
(assert (>= |(20, 0)| 0.0))
(assert (>= |(20, 0)|
    (+ 0.0
       1.0
       (* |(6, 3)| 1.0)
       (* |(13, 0)| |(6,3,13)| 1.0)
       (* |(44, 0)| |(6,3,44)| 1.0))))
(assert (>= |(4,5,23)| 0.0))
(assert (>= |(4,5,23)| (+ 0.0 (* |(32,5,23)| (/ 1.0 2.0)))))
(assert (>= |(3, 3)| 0.0))
(assert (>= |(3, 3)| (+ 0.0 1.0 (* |(21, 3)| (/ 1.0 2.0)) (* |(36, 3)| (/ 1.0 2.0)))))
(assert (>= |(4,5,24)| 0.0))
(assert (>= |(4,5,24)| (+ 0.0 (* |(42,5,24)| (/ 1.0 2.0)))))
(assert (>= |(0, 5)| 0.0))
(assert (>= |(0, 5)| (+ 0.0 1.0 (* |(48, 5)| (/ 1.0 2.0)) (* |(34, 5)| (/ 1.0 2.0)))))
(assert (>= |(27, 0)| 0.0))
(assert (>= |(27, 0)| (+ 0.0 1.0)))
(assert (>= |(13, 1)| 0.0))
(assert (>= |(13, 1)|
    (+ 0.0
       1.0
       (* |(7, 3)| 1.0)
       (* |(43, 1)| |(7,3,43)| 1.0)
       (* |(45, 1)| |(7,3,45)| 1.0))))
(assert (>= |(19,3,13)| 0.0))
(assert (>= |(19,3,13)| (+ 0.0 (* |(24,3,13)| |(8,5,24)| 1.0))))
(assert (>= |(28, 0)| 0.0))
(assert (>= |(28, 0)| (+ 0.0 1.0)))
(assert (>= |(30, 0)| 0.0))
(assert (>= |(30, 0)| (+ 0.0 1.0)))
(assert (>= |(9, 2)| 0.0))
(assert (>= |(9, 2)| (+ 0.0 1.0 (* |(2, 2)| (/ 1.0 2.0)) (* |(17, 2)| (/ 1.0 2.0)))))
(assert (>= |(15, 1)| 0.0))
(assert (>= |(15, 1)|
    (+ 0.0
       1.0
       (* |(7, 6)| 1.0)
       (* |(27, 1)| |(7,6,27)| 1.0)
       (* |(30, 1)| |(7,6,30)| 1.0))))
(assert (>= |(32, 0)| 0.0))
(assert (>= |(32, 0)| (+ 0.0 1.0)))
(assert (>= |(20,5,19)| 0.0))
(assert (>= |(20,5,19)|
    (+ 0.0 (* |(13,5,19)| |(6,3,13)| 1.0) (* |(44,5,19)| |(6,3,44)| 1.0))))
(assert (>= |(6, 3)| 0.0))
(assert (>= |(6, 3)| (+ 0.0 1.0 (* |(3, 3)| (/ 1.0 2.0)) (* |(14, 3)| (/ 1.0 2.0)))))
(assert (>= |(16, 1)| 0.0))
(assert (>= |(16, 1)|
    (+ 0.0
       1.0
       (* |(6, 6)| 1.0)
       (* |(15, 1)| |(6,6,15)| 1.0)
       (* |(28, 1)| |(6,6,28)| 1.0))))
(assert (>= |(34, 0)| 0.0))
(assert (>= |(34, 0)| (+ 0.0 1.0)))
(assert (>= |(11, 2)| 0.0))
(assert (>= |(11, 2)|
    (+ 0.0
       1.0
       (* |(8, 0)| 1.0)
       (* |(31, 2)| |(8,0,31)| 1.0)
       (* |(37, 2)| |(8,0,37)| 1.0))))
(assert (>= |(7, 3)| 0.0))
(assert (>= |(7, 3)| (+ 0.0 1.0 (* |(1, 3)| (/ 1.0 2.0)) (* |(18, 3)| (/ 1.0 2.0)))))
(assert (>= |(42,0,31)| 0.0))
(assert (>= |(42,0,31)| (+ 0.0 1.0)))
(assert (>= |(20, 1)| 0.0))
(assert (>= |(20, 1)|
    (+ 0.0
       1.0
       (* |(6, 3)| 1.0)
       (* |(13, 1)| |(6,3,13)| 1.0)
       (* |(44, 1)| |(6,3,44)| 1.0))))
(assert (>= |(42, 0)| 0.0))
(assert (>= |(42, 0)| (+ 0.0 1.0)))
(assert (>= |(3,3,44)| 0.0))
(assert (>= |(3,3,44)| (+ 0.0 (* |(21,3,44)| (/ 1.0 2.0)))))
(assert (>= |(20,5,29)| 0.0))
(assert (>= |(20,5,29)| (+ 0.0 (* |(13,5,29)| |(6,3,13)| 1.0))))
(assert (>= |(43, 0)| 0.0))
(assert (>= |(43, 0)| (+ 0.0 1.0)))
(assert (>= |(1, 6)| 0.0))
(assert (>= |(1, 6)| (+ 0.0 1.0 (* |(47, 6)| (/ 1.0 2.0)) (* |(35, 6)| (/ 1.0 2.0)))))
(assert (>= |(44, 0)| 0.0))
(assert (>= |(44, 0)| (+ 0.0 1.0)))
(assert (>= |(28,5,23)| 0.0))
(assert (>= |(28,5,23)| (+ 0.0 1.0)))
(assert (>= |(45, 0)| 0.0))
(assert (>= |(45, 0)| (+ 0.0 1.0)))
(assert (>= |(34,0,46)| 0.0))
(assert (>= |(34,0,46)| (+ 0.0 1.0)))
(assert (>= |(48, 0)| 0.0))
(assert (>= |(48, 0)| (+ 0.0 1.0)))
(assert (>= |(4, 5)| 0.0))
(assert (>= |(4, 5)| (+ 0.0 1.0 (* |(32, 5)| (/ 1.0 2.0)) (* |(42, 5)| (/ 1.0 2.0)))))
(assert (>= |(10, 3)| 0.0))
(assert (>= |(10, 3)|
    (+ 0.0
       1.0
       (* |(8, 1)| 1.0)
       (* |(22, 3)| |(8,1,22)| 1.0)
       (* |(33, 3)| |(8,1,33)| 1.0))))
(assert (>= |(17, 2)| 0.0))
(assert (>= |(17, 2)|
    (+ 0.0
       1.0
       (* |(5, 0)| 1.0)
       (* |(11, 2)| |(5,0,11)| 1.0)
       (* |(46, 2)| |(5,0,46)| 1.0))))
(assert (>= |(5, 5)| 0.0))
(assert (>= |(5, 5)| (+ 0.0 1.0 (* |(0, 5)| (/ 1.0 2.0)) (* |(20, 5)| (/ 1.0 2.0)))))
(assert (>= |(27, 1)| 0.0))
(assert (>= |(27, 1)| (+ 0.0 1.0)))
(assert (>= |(44,5,19)| 0.0))
(assert (>= |(44,5,19)| (+ 0.0 1.0)))
(assert (>= |(3, 6)| 0.0))
(assert (>= |(3, 6)| (+ 0.0 1.0 (* |(21, 6)| (/ 1.0 2.0)) (* |(36, 6)| (/ 1.0 2.0)))))
(assert (>= |(28, 1)| 0.0))
(assert (>= |(28, 1)| (+ 0.0 1.0)))
(assert (>= |(19,3,44)| 0.0))
(assert (>= |(19,3,44)| (+ 0.0 (* |(23,3,44)| |(8,5,23)| 1.0))))
(assert (>= |(30, 1)| 0.0))
(assert (>= |(30, 1)| (+ 0.0 1.0)))
(assert (>= |(42,1,22)| 0.0))
(assert (>= |(42,1,22)| (+ 0.0 1.0)))
(assert (>= |(14, 3)| 0.0))
(assert (>= |(14, 3)|
    (+ 0.0
       1.0
       (* |(5, 5)| 1.0)
       (* |(19, 3)| |(5,5,19)| 1.0)
       (* |(29, 3)| |(5,5,29)| 1.0))))
(assert (>= |(32, 1)| 0.0))
(assert (>= |(32, 1)| (+ 0.0 1.0)))
(assert (>= |(2,2,38)| 0.0))
(assert (>= |(2,2,38)| (+ 0.0 (* |(26,2,38)| (/ 1.0 2.0)))))
(assert (>= |(34, 1)| 0.0))
(assert (>= |(34, 1)| (+ 0.0 1.0)))
(assert (>= |(2,2,39)| 0.0))
(assert (>= |(2,2,39)| (+ 0.0 (* |(41,2,39)| (/ 1.0 2.0)))))
(assert (>= |(34,1,40)| 0.0))
(assert (>= |(34,1,40)| (+ 0.0 1.0)))
(assert (>= |(8, 5)| 0.0))
(assert (>= |(8, 5)| (+ 0.0 1.0 (* |(4, 5)| (/ 1.0 2.0)) (* |(16, 5)| (/ 1.0 2.0)))))
(assert (>= |(35,3,43)| 0.0))
(assert (>= |(35,3,43)| (+ 0.0 1.0)))
(assert (>= |(36,6,15)| 0.0))
(assert (>= |(36,6,15)| (+ 0.0 1.0)))
(assert (>= |(12, 4)| 0.0))
(assert (>= |(12, 4)|
    (+ 0.0
       1.0
       (* |(9, 2)| 1.0)
       (* |(38, 4)| |(9,2,38)| 1.0)
       (* |(39, 4)| |(9,2,39)| 1.0))))
(assert (>= |(6, 6)| 0.0))
(assert (>= |(6, 6)| (+ 0.0 1.0 (* |(3, 6)| (/ 1.0 2.0)) (* |(14, 6)| (/ 1.0 2.0)))))
(assert (>= |(18, 3)| 0.0))
(assert (>= |(18, 3)|
    (+ 0.0
       1.0
       (* |(5, 1)| 1.0)
       (* |(10, 3)| |(5,1,10)| 1.0)
       (* |(40, 3)| |(5,1,40)| 1.0))))
(assert (>= |(26, 2)| 0.0))
(assert (>= |(26, 2)| (+ 0.0 1.0)))
(assert (>= |(19, 3)| 0.0))
(assert (>= |(19, 3)|
    (+ 0.0
       1.0
       (* |(8, 5)| 1.0)
       (* |(23, 3)| |(8,5,23)| 1.0)
       (* |(24, 3)| |(8,5,24)| 1.0))))
(assert (>= |(7, 6)| 0.0))
(assert (>= |(7, 6)| (+ 0.0 1.0 (* |(1, 6)| (/ 1.0 2.0)) (* |(18, 6)| (/ 1.0 2.0)))))
(assert (>= |(42, 1)| 0.0))
(assert (>= |(42, 1)| (+ 0.0 1.0)))
(assert (>= |(43, 1)| 0.0))
(assert (>= |(43, 1)| (+ 0.0 1.0)))
(assert (>= |(44, 1)| 0.0))
(assert (>= |(44, 1)| (+ 0.0 1.0)))
(assert (>= |(45, 1)| 0.0))
(assert (>= |(45, 1)| (+ 0.0 1.0)))
(assert (>= |(26,2,38)| 0.0))
(assert (>= |(26,2,38)| (+ 0.0 1.0)))
(assert (>= |(21, 3)| 0.0))
(assert (>= |(21, 3)| (+ 0.0 1.0)))
(assert (>= |(31, 2)| 0.0))
(assert (>= |(31, 2)| (+ 0.0 1.0)))
(assert (>= |(48, 1)| 0.0))
(assert (>= |(48, 1)| (+ 0.0 1.0)))
(assert (>= |(22, 3)| 0.0))
(assert (>= |(22, 3)| (+ 0.0 1.0)))
(assert (>= |(23, 3)| 0.0))
(assert (>= |(23, 3)| (+ 0.0 1.0)))
(assert (>= |(13, 5)| 0.0))
(assert (>= |(13, 5)|
    (+ 0.0
       1.0
       (* |(7, 3)| 1.0)
       (* |(43, 5)| |(7,3,43)| 1.0)
       (* |(45, 5)| |(7,3,45)| 1.0))))
(assert (>= |(24, 3)| 0.0))
(assert (>= |(24, 3)| (+ 0.0 1.0)))
(assert (>= |(0,0,11)| 0.0))
(assert (>= |(0,0,11)| (+ 0.0 (* |(48,0,11)| (/ 1.0 2.0)))))
(assert (>= |(10, 6)| 0.0))
(assert (>= |(10, 6)|
    (+ 0.0
       1.0
       (* |(8, 1)| 1.0)
       (* |(22, 6)| |(8,1,22)| 1.0)
       (* |(33, 6)| |(8,1,33)| 1.0))))
(assert (>= |(3,6,15)| 0.0))
(assert (>= |(3,6,15)| (+ 0.0 (* |(36,6,15)| (/ 1.0 2.0)))))
(assert (>= |(27,5,24)| 0.0))
(assert (>= |(27,5,24)| (+ 0.0 1.0)))
(assert (>= |(10,3,43)| 0.0))
(assert (>= |(10,3,43)| (+ 0.0 (* |(22,3,43)| |(8,1,22)| 1.0))))
(assert (>= |(10,3,45)| 0.0))
(assert (>= |(10,3,45)| (+ 0.0 (* |(33,3,45)| |(8,1,33)| 1.0))))
(assert (>= |(37, 2)| 0.0))
(assert (>= |(37, 2)| (+ 0.0 1.0)))
(assert (>= |(15, 5)| 0.0))
(assert (>= |(15, 5)|
    (+ 0.0
       1.0
       (* |(7, 6)| 1.0)
       (* |(27, 5)| |(7,6,27)| 1.0)
       (* |(30, 5)| |(7,6,30)| 1.0))))
(assert (>= |(3,6,28)| 0.0))
(assert (>= |(3,6,28)| (+ 0.0 (* |(21,6,28)| (/ 1.0 2.0)))))
(assert (>= |(18,3,43)| 0.0))
(assert (>= |(18,3,43)|
    (+ 0.0 (* |(10,3,43)| |(5,1,10)| 1.0) (* |(40,3,43)| |(5,1,40)| 1.0))))
(assert (>= |(16, 5)| 0.0))
(assert (>= |(16, 5)|
    (+ 0.0
       1.0
       (* |(6, 6)| 1.0)
       (* |(15, 5)| |(6,6,15)| 1.0)
       (* |(28, 5)| |(6,6,28)| 1.0))))
(assert (>= |(18,3,45)| 0.0))
(assert (>= |(18,3,45)| (+ 0.0 (* |(10,3,45)| |(5,1,10)| 1.0))))
(assert (>= |(19,6,15)| 0.0))
(assert (>= |(19,6,15)| (+ 0.0 (* |(24,6,15)| |(8,5,24)| 1.0))))
(assert (>= |(29, 3)| 0.0))
(assert (>= |(29, 3)| (+ 0.0 1.0)))
(assert (>= |(41, 2)| 0.0))
(assert (>= |(41, 2)| (+ 0.0 1.0)))
(assert (>= |(43,5,29)| 0.0))
(assert (>= |(43,5,29)| (+ 0.0 1.0)))
(assert (>= |(8,0,31)| 0.0))
(assert (>= |(8,0,31)| (+ 0.0 (* |(4,0,31)| (/ 1.0 2.0)) (* |(16,0,31)| (/ 1.0 2.0)))))
(assert (>= |(14, 6)| 0.0))
(assert (>= |(14, 6)|
    (+ 0.0
       1.0
       (* |(5, 5)| 1.0)
       (* |(19, 6)| |(5,5,19)| 1.0)
       (* |(29, 6)| |(5,5,29)| 1.0))))
(assert (>= |(0,1,10)| 0.0))
(assert (>= |(0,1,10)| (+ 0.0 (* |(48,1,10)| (/ 1.0 2.0)))))
(assert (>= |(19,6,28)| 0.0))
(assert (>= |(19,6,28)| (+ 0.0 (* |(23,6,28)| |(8,5,23)| 1.0))))
(assert (>= |(8,0,37)| 0.0))
(assert (>= |(8,0,37)| (+ 0.0 (* |(4,0,37)| (/ 1.0 2.0)) (* |(16,0,37)| (/ 1.0 2.0)))))
(assert (>= |(9,2,38)| 0.0))
(assert (>= |(9,2,38)| (+ 0.0 (* |(2,2,38)| (/ 1.0 2.0)) (* |(17,2,38)| (/ 1.0 2.0)))))
(assert (>= |(0,0,46)| 0.0))
(assert (>= |(0,0,46)| (+ 0.0 (* |(34,0,46)| (/ 1.0 2.0)))))
(assert (>= |(9,2,39)| 0.0))
(assert (>= |(9,2,39)| (+ 0.0 (* |(2,2,39)| (/ 1.0 2.0)) (* |(17,2,39)| (/ 1.0 2.0)))))
(assert (>= |(33, 3)| 0.0))
(assert (>= |(33, 3)| (+ 0.0 1.0)))
(assert (>= |(16,0,31)| 0.0))
(assert (>= |(16,0,31)| (+ 0.0 (* |(15,0,31)| |(6,6,15)| 1.0))))
(assert (>= |(46, 2)| 0.0))
(assert (>= |(46, 2)| (+ 0.0 1.0)))
(assert (>= |(20, 5)| 0.0))
(assert (>= |(20, 5)|
    (+ 0.0
       1.0
       (* |(6, 3)| 1.0)
       (* |(13, 5)| |(6,3,13)| 1.0)
       (* |(44, 5)| |(6,3,44)| 1.0))))
(assert (>= |(16,0,37)| 0.0))
(assert (>= |(16,0,37)|
    (+ 0.0 (* |(15,0,37)| |(6,6,15)| 1.0) (* |(28,0,37)| |(6,6,28)| 1.0))))
(assert (>= |(17,2,38)| 0.0))
(assert (>= |(17,2,38)|
    (+ 0.0 (* |(11,2,38)| |(5,0,11)| 1.0) (* |(46,2,38)| |(5,0,46)| 1.0))))
(assert (>= |(17,2,39)| 0.0))
(assert (>= |(17,2,39)| (+ 0.0 (* |(11,2,39)| |(5,0,11)| 1.0))))
(assert (>= |(35, 3)| 0.0))
(assert (>= |(35, 3)| (+ 0.0 1.0)))
(assert (>= |(35,6,27)| 0.0))
(assert (>= |(35,6,27)| (+ 0.0 1.0)))
(assert (>= |(36, 3)| 0.0))
(assert (>= |(36, 3)| (+ 0.0 1.0)))
(assert (>= |(48,0,11)| 0.0))
(assert (>= |(48,0,11)| (+ 0.0 1.0)))
(assert (>= |(8,1,22)| 0.0))
(assert (>= |(8,1,22)| (+ 0.0 (* |(4,1,22)| (/ 1.0 2.0)) (* |(16,1,22)| (/ 1.0 2.0)))))
(assert (>= |(18, 6)| 0.0))
(assert (>= |(18, 6)|
    (+ 0.0
       1.0
       (* |(5, 1)| 1.0)
       (* |(10, 6)| |(5,1,10)| 1.0)
       (* |(40, 6)| |(5,1,40)| 1.0))))
(assert (>= |(16,1,22)| 0.0))
(assert (>= |(16,1,22)| (+ 0.0 (* |(15,1,22)| |(6,6,15)| 1.0))))
(assert (>= |(32,0,37)| 0.0))
(assert (>= |(32,0,37)| (+ 0.0 1.0)))
(assert (>= |(0,1,40)| 0.0))
(assert (>= |(0,1,40)| (+ 0.0 (* |(34,1,40)| (/ 1.0 2.0)))))
(assert (>= |(8,1,33)| 0.0))
(assert (>= |(8,1,33)| (+ 0.0 (* |(4,1,33)| (/ 1.0 2.0)) (* |(16,1,33)| (/ 1.0 2.0)))))
(assert (>= |(1,3,43)| 0.0))
(assert (>= |(1,3,43)| (+ 0.0 (* |(35,3,43)| (/ 1.0 2.0)))))
(assert (>= |(19, 6)| 0.0))
(assert (>= |(19, 6)|
    (+ 0.0
       1.0
       (* |(8, 5)| 1.0)
       (* |(23, 6)| |(8,5,23)| 1.0)
       (* |(24, 6)| |(8,5,24)| 1.0))))
(assert (>= |(40, 3)| 0.0))
(assert (>= |(40, 3)| (+ 0.0 1.0)))
(assert (>= |(1,3,45)| 0.0))
(assert (>= |(1,3,45)| (+ 0.0 (* |(47,3,45)| (/ 1.0 2.0)))))
(assert (>= |(41,2,39)| 0.0))
(assert (>= |(41,2,39)| (+ 0.0 1.0)))
(assert (>= |(16,1,33)| 0.0))
(assert (>= |(16,1,33)|
    (+ 0.0 (* |(15,1,33)| |(6,6,15)| 1.0) (* |(28,1,33)| |(6,6,28)| 1.0))))
(assert (>= |(21, 6)| 0.0))
(assert (>= |(21, 6)| (+ 0.0 1.0)))
(assert (>= |(34,5,29)| 0.0))
(assert (>= |(34,5,29)| (+ 0.0 1.0)))
(assert (>= |(48,1,10)| 0.0))
(assert (>= |(48,1,10)| (+ 0.0 1.0)))
(assert (>= |(27, 5)| 0.0))
(assert (>= |(27, 5)| (+ 0.0 1.0)))
(assert (>= |(42,5,24)| 0.0))
(assert (>= |(42,5,24)| (+ 0.0 1.0)))
(assert (>= |(10,6,27)| 0.0))
(assert (>= |(10,6,27)| (+ 0.0 (* |(22,6,27)| |(8,1,22)| 1.0))))
(assert (>= |(22, 6)| 0.0))
(assert (>= |(22, 6)| (+ 0.0 1.0)))
(assert (>= |(32,1,33)| 0.0))
(assert (>= |(32,1,33)| (+ 0.0 1.0)))
(assert (>= |(10,6,30)| 0.0))
(assert (>= |(10,6,30)| (+ 0.0 (* |(33,6,30)| |(8,1,33)| 1.0))))
(assert (>= |(28, 5)| 0.0))
(assert (>= |(28, 5)| (+ 0.0 1.0)))
(assert (>= |(47, 3)| 0.0))
(assert (>= |(47, 3)| (+ 0.0 1.0)))
(assert (>= |(23, 6)| 0.0))
(assert (>= |(23, 6)| (+ 0.0 1.0)))
(assert (>= |(18,6,27)| 0.0))
(assert (>= |(18,6,27)|
    (+ 0.0 (* |(10,6,27)| |(5,1,10)| 1.0) (* |(40,6,27)| |(5,1,40)| 1.0))))
(assert (>= |(18,6,30)| 0.0))
(assert (>= |(18,6,30)| (+ 0.0 (* |(10,6,30)| |(5,1,10)| 1.0))))
(assert (>= |(33,3,45)| 0.0))
(assert (>= |(33,3,45)| (+ 0.0 1.0)))
(assert (>= |(24, 6)| 0.0))
(assert (>= |(24, 6)| (+ 0.0 1.0)))
(assert (>= |(15,0,31)| 0.0))
(assert (>= |(15,0,31)| (+ 0.0 (* |(27,0,31)| |(7,6,27)| 1.0))))
(assert (>= |(25,4,25)| 0.0))
(assert (>= |(25,4,25)| (+ 0.0 1.0)))
(assert (>= |(30, 5)| 0.0))
(assert (>= |(30, 5)| (+ 0.0 1.0)))
(assert (>= |(38, 4)| 0.0))
(assert (>= |(38, 4)| (+ 0.0 1.0)))
(assert (>= |(15,0,37)| 0.0))
(assert (>= |(15,0,37)| (+ 0.0 (* |(30,0,37)| |(7,6,30)| 1.0))))
(assert (>= |(39, 4)| 0.0))
(assert (>= |(39, 4)| (+ 0.0 1.0)))
(assert (>= |(32, 5)| 0.0))
(assert (>= |(32, 5)| (+ 0.0 1.0)))
(assert (>= |(24,3,13)| 0.0))
(assert (>= |(24,3,13)| (+ 0.0 1.0)))
(assert (>= |(15,1,22)| 0.0))
(assert (>= |(15,1,22)| (+ 0.0 (* |(27,1,22)| |(7,6,27)| 1.0))))
(assert (>= |(34, 5)| 0.0))
(assert (>= |(34, 5)| (+ 0.0 1.0)))
(assert (>= |(15,1,33)| 0.0))
(assert (>= |(15,1,33)| (+ 0.0 (* |(30,1,33)| |(7,6,30)| 1.0))))
(assert (>= |(29, 6)| 0.0))
(assert (>= |(29, 6)| (+ 0.0 1.0)))
(assert (>= |(1,6,27)| 0.0))
(assert (>= |(1,6,27)| (+ 0.0 (* |(35,6,27)| (/ 1.0 2.0)))))
(assert (>= |(1,6,30)| 0.0))
(assert (>= |(1,6,30)| (+ 0.0 (* |(47,6,30)| (/ 1.0 2.0)))))
(assert (>= |(33, 6)| 0.0))
(assert (>= |(33, 6)| (+ 0.0 1.0)))
(assert (>= |(0,5,19)| 0.0))
(assert (>= |(0,5,19)| (+ 0.0 (* |(48,5,19)| (/ 1.0 2.0)))))
(assert (>= |(40,3,43)| 0.0))
(assert (>= |(40,3,43)| (+ 0.0 1.0)))
(assert (>= |(42, 5)| 0.0))
(assert (>= |(42, 5)| (+ 0.0 1.0)))
(assert (>= |(0,5,29)| 0.0))
(assert (>= |(0,5,29)| (+ 0.0 (* |(34,5,29)| (/ 1.0 2.0)))))
(assert (>= |(33,6,30)| 0.0))
(assert (>= |(33,6,30)| (+ 0.0 1.0)))
(assert (>= |(8,5,23)| 0.0))
(assert (>= |(8,5,23)| (+ 0.0 (* |(4,5,23)| (/ 1.0 2.0)) (* |(16,5,23)| (/ 1.0 2.0)))))
(assert (>= |(35, 6)| 0.0))
(assert (>= |(35, 6)| (+ 0.0 1.0)))
(assert (>= |(8,5,24)| 0.0))
(assert (>= |(8,5,24)| (+ 0.0 (* |(4,5,24)| (/ 1.0 2.0)) (* |(16,5,24)| (/ 1.0 2.0)))))
(assert (>= |(43, 5)| 0.0))
(assert (>= |(43, 5)| (+ 0.0 1.0)))
(assert (>= |(36, 6)| 0.0))
(assert (>= |(36, 6)| (+ 0.0 1.0)))
(assert (>= |(16,5,23)| 0.0))
(assert (>= |(16,5,23)|
    (+ 0.0 (* |(15,5,23)| |(6,6,15)| 1.0) (* |(28,5,23)| |(6,6,28)| 1.0))))
(assert (>= |(44, 5)| 0.0))
(assert (>= |(44, 5)| (+ 0.0 1.0)))
(assert (>= |(16,5,24)| 0.0))
(assert (>= |(16,5,24)| (+ 0.0 (* |(15,5,24)| |(6,6,15)| 1.0))))
(assert (>= |(30,0,37)| 0.0))
(assert (>= |(30,0,37)| (+ 0.0 1.0)))
(assert (>= |(31,2,38)| 0.0))
(assert (>= |(31,2,38)| (+ 0.0 1.0)))
(assert (>= |(45, 5)| 0.0))
(assert (>= |(45, 5)| (+ 0.0 1.0)))
(assert (>= |(7,3,43)| 0.0))
(assert (>= |(7,3,43)| (+ 0.0 (* |(1,3,43)| (/ 1.0 2.0)) (* |(18,3,43)| (/ 1.0 2.0)))))
(assert (>= |(5,0,11)| 0.0))
(assert (>= |(5,0,11)| (+ 0.0 (* |(0,0,11)| (/ 1.0 2.0)) (* |(20,0,11)| (/ 1.0 2.0)))))
(assert (>= |(7,3,45)| 0.0))
(assert (>= |(7,3,45)| (+ 0.0 (* |(1,3,45)| (/ 1.0 2.0)) (* |(18,3,45)| (/ 1.0 2.0)))))
(assert (>= |(32,5,23)| 0.0))
(assert (>= |(32,5,23)| (+ 0.0 1.0)))
(assert (>= |(13,0,11)| 0.0))
(assert (>= |(13,0,11)| (+ 0.0 (* |(45,0,11)| |(7,3,45)| 1.0))))
(assert (>= |(48, 5)| 0.0))
(assert (>= |(48, 5)| (+ 0.0 1.0)))
(assert (>= |(48,5,19)| 0.0))
(assert (>= |(48,5,19)| (+ 0.0 1.0)))
(assert (>= |(40, 6)| 0.0))
(assert (>= |(40, 6)| (+ 0.0 1.0)))
(assert (>= |(30,1,33)| 0.0))
(assert (>= |(30,1,33)| (+ 0.0 1.0)))
(assert (>= |(23,3,44)| 0.0))
(assert (>= |(23,3,44)| (+ 0.0 1.0)))
(assert (>= |(24,6,15)| 0.0))
(assert (>= |(24,6,15)| (+ 0.0 1.0)))
(assert (>= |(5,1,10)| 0.0))
(assert (>= |(5,1,10)| (+ 0.0 (* |(0,1,10)| (/ 1.0 2.0)) (* |(20,1,10)| (/ 1.0 2.0)))))
(assert (>= |(6,3,13)| 0.0))
(assert (>= |(6,3,13)| (+ 0.0 (* |(3,3,13)| (/ 1.0 2.0)) (* |(14,3,13)| (/ 1.0 2.0)))))
(assert (>= |(5,0,46)| 0.0))
(assert (>= |(5,0,46)| (+ 0.0 (* |(0,0,46)| (/ 1.0 2.0)) (* |(20,0,46)| (/ 1.0 2.0)))))
(assert (>= |(13,1,10)| 0.0))
(assert (>= |(13,1,10)| (+ 0.0 (* |(45,1,10)| |(7,3,45)| 1.0))))
(assert (>= |(45,0,11)| 0.0))
(assert (>= |(45,0,11)| (+ 0.0 1.0)))
(assert (>= |(14,3,13)| 0.0))
(assert (>= |(14,3,13)|
    (+ 0.0 (* |(19,3,13)| |(5,5,19)| 1.0) (* |(29,3,13)| |(5,5,29)| 1.0))))
(assert (>= |(47,3,45)| 0.0))
(assert (>= |(47,3,45)| (+ 0.0 1.0)))
(assert (>= |(13,0,46)| 0.0))
(assert (>= |(13,0,46)| (+ 0.0 (* |(43,0,46)| |(7,3,43)| 1.0))))
(assert (>= |(39,4,25)| 0.0))
(assert (>= |(39,4,25)| (+ 0.0 1.0)))
(assert (>= |(40,6,27)| 0.0))
(assert (>= |(40,6,27)| (+ 0.0 1.0)))
(assert (>= |(15,5,23)| 0.0))
(assert (>= |(15,5,23)| (+ 0.0 (* |(30,5,23)| |(7,6,30)| 1.0))))
(assert (>= |(15,5,24)| 0.0))
(assert (>= |(15,5,24)| (+ 0.0 (* |(27,5,24)| |(7,6,27)| 1.0))))
(assert (>= |(5,1,40)| 0.0))
(assert (>= |(5,1,40)| (+ 0.0 (* |(0,1,40)| (/ 1.0 2.0)) (* |(20,1,40)| (/ 1.0 2.0)))))
(assert (>= |(47, 6)| 0.0))
(assert (>= |(47, 6)| (+ 0.0 1.0)))
(assert (>= |(6,3,44)| 0.0))
(assert (>= |(6,3,44)| (+ 0.0 (* |(3,3,44)| (/ 1.0 2.0)) (* |(14,3,44)| (/ 1.0 2.0)))))
(assert (>= |(46,2,38)| 0.0))
(assert (>= |(46,2,38)| (+ 0.0 1.0)))
(assert (>= |(13,1,40)| 0.0))
(assert (>= |(13,1,40)| (+ 0.0 (* |(43,1,40)| |(7,3,43)| 1.0))))
(assert (>= |(45,1,10)| 0.0))
(assert (>= |(45,1,10)| (+ 0.0 1.0)))
(assert (>= |(14,3,44)| 0.0))
(assert (>= |(14,3,44)| (+ 0.0 (* |(19,3,44)| |(5,5,19)| 1.0))))
(assert (>= |(7,6,27)| 0.0))
(assert (>= |(7,6,27)| (+ 0.0 (* |(1,6,27)| (/ 1.0 2.0)) (* |(18,6,27)| (/ 1.0 2.0)))))
(assert (>= |(22,3,43)| 0.0))
(assert (>= |(22,3,43)| (+ 0.0 1.0)))
(assert (>= |(7,6,30)| 0.0))
(assert (>= |(7,6,30)| (+ 0.0 (* |(1,6,30)| (/ 1.0 2.0)) (* |(18,6,30)| (/ 1.0 2.0)))))
(assert (>= |(20,0,11)| 0.0))
(assert (>= |(20,0,11)|
    (+ 0.0 (* |(13,0,11)| |(6,3,13)| 1.0) (* |(44,0,11)| |(6,3,44)| 1.0))))
(assert (>= |(4,0,31)| 0.0))
(assert (>= |(4,0,31)| (+ 0.0 (* |(42,0,31)| (/ 1.0 2.0)))))
(assert (>= |(4,0,37)| 0.0))
(assert (>= |(4,0,37)| (+ 0.0 (* |(32,0,37)| (/ 1.0 2.0)))))
(assert (>= |(23,6,28)| 0.0))
(assert (>= |(23,6,28)| (+ 0.0 1.0)))
(assert (>= |(44,0,11)| 0.0))
(assert (>= |(44,0,11)| (+ 0.0 1.0)))
(assert (>= |(4,1,22)| 0.0))
(assert (>= |(4,1,22)| (+ 0.0 (* |(42,1,22)| (/ 1.0 2.0)))))
(assert (>= |(38,4,25)| 0.0))
(assert (>= |(38,4,25)| (+ 0.0 1.0)))
(assert (>= |(20,1,10)| 0.0))
(assert (>= |(20,1,10)|
    (+ 0.0 (* |(13,1,10)| |(6,3,13)| 1.0) (* |(44,1,10)| |(6,3,44)| 1.0))))
(assert (>= |(28,0,37)| 0.0))
(assert (>= |(28,0,37)| (+ 0.0 1.0)))
(assert (>= |(20,0,46)| 0.0))
(assert (>= |(20,0,46)| (+ 0.0 (* |(13,0,46)| |(6,3,13)| 1.0))))
(assert (>= |(4,1,33)| 0.0))
(assert (>= |(4,1,33)| (+ 0.0 (* |(32,1,33)| (/ 1.0 2.0)))))
(assert (>= |(29,3,13)| 0.0))
(assert (>= |(29,3,13)| (+ 0.0 1.0)))
(assert (>= |(47,6,30)| 0.0))
(assert (>= |(47,6,30)| (+ 0.0 1.0)))
(assert (>= |(37,2,39)| 0.0))
(assert (>= |(37,2,39)| (+ 0.0 1.0)))
(assert (>= |(6,6,15)| 0.0))
(assert (>= |(6,6,15)| (+ 0.0 (* |(3,6,15)| (/ 1.0 2.0)) (* |(14,6,15)| (/ 1.0 2.0)))))
(assert (>= |(30,5,23)| 0.0))
(assert (>= |(30,5,23)| (+ 0.0 1.0)))
(assert (>= |(44,1,10)| 0.0))
(assert (>= |(44,1,10)| (+ 0.0 1.0)))
(assert (>= |(14,6,15)| 0.0))
(assert (>= |(14,6,15)|
    (+ 0.0 (* |(19,6,15)| |(5,5,19)| 1.0) (* |(29,6,15)| |(5,5,29)| 1.0))))
(assert (>= |(20,1,40)| 0.0))
(assert (>= |(20,1,40)| (+ 0.0 (* |(13,1,40)| |(6,3,13)| 1.0))))
(assert (>= |(6,6,28)| 0.0))
(assert (>= |(6,6,28)| (+ 0.0 (* |(3,6,28)| (/ 1.0 2.0)) (* |(14,6,28)| (/ 1.0 2.0)))))
(assert (>= |(28,1,33)| 0.0))
(assert (>= |(28,1,33)| (+ 0.0 1.0)))
(assert (>= |(21,3,44)| 0.0))
(assert (>= |(21,3,44)| (+ 0.0 1.0)))
(assert (>= |(14,6,28)| 0.0))
(assert (>= |(14,6,28)| (+ 0.0 (* |(19,6,28)| |(5,5,19)| 1.0))))
(assert (>= |(22,6,27)| 0.0))
(assert (>= |(22,6,27)| (+ 0.0 1.0)))
(assert (>= |(5,5,19)| 0.0))
(assert (>= |(5,5,19)| (+ 0.0 (* |(0,5,19)| (/ 1.0 2.0)) (* |(20,5,19)| (/ 1.0 2.0)))))
(assert (>= |(27,0,31)| 0.0))
(assert (>= |(27,0,31)| (+ 0.0 1.0)))
(assert (>= |(13,5,19)| 0.0))
(assert (>= |(13,5,19)| (+ 0.0 (* |(45,5,19)| |(7,3,45)| 1.0))))
(assert (>= |(5,5,29)| 0.0))
(assert (>= |(5,5,29)| (+ 0.0 (* |(0,5,29)| (/ 1.0 2.0)) (* |(20,5,29)| (/ 1.0 2.0)))))
(assert (>= |(13,5,29)| 0.0))
(assert (>= |(13,5,29)| (+ 0.0 (* |(43,5,29)| |(7,3,43)| 1.0))))
(assert (>= |(36,3,13)| 0.0))
(assert (>= |(36,3,13)| (+ 0.0 1.0)))
(assert (>= |(27,1,22)| 0.0))
(assert (>= |(27,1,22)| (+ 0.0 1.0)))
(assert (>= |(43,0,46)| 0.0))
(assert (>= |(43,0,46)| (+ 0.0 1.0)))
(assert (>= |(45,5,19)| 0.0))
(assert (>= |(45,5,19)| (+ 0.0 1.0)))
(check-sat)
(exit)
